1153 626
1282 3053
4205 2875
3900 2883
119 3163
3703 2757
1104 1543
511 699
4984 924
444 1273
2460 2913
1571 0
2927 4493
901 2298
44 914
1310 4179
3799 1116
3275 2399
69 2286
3642 1074
185 2441
439 3326
1292 1241
3178 4760
2510 3869
330 3671
728 914
3278 1225
4338 3916
3449 5047
1462 1422
4269 4962
3867 1682
3415 1915
4396 2280
4508 201
244 1668
3889 4415
4910 444
3111 2479
1843 5005
4708 359
1936 3404
3856 1870
3074 3480
3557 3707
2193 4877
3365 352
262 1995
1413 2318
